pl-example13.dzn
%%% Plate layout for the paper 
%% Produces 1 plate.
%% 2020/12/04: It takes about 3s 409msec

%% Plate dimentions: (this is a 96-well plate)
num_rows = 8; %% height
num_cols = 12; %% width


horizontal_cell_lines = 1;
vertical_cell_lines = 1;

allow_empty_wells = false;

% New and used!
concentrations_on_different_rows = true;
concentrations_on_different_columns = true;

% New and unused! (Restriction: replicates_on_different_plates /\ replicates_on_same_plate == false)
replicates_on_different_plates = true;
replicates_on_same_plate = false;

size_empty_edge = 0;


%%% Compounds %%%
compounds = 8; %% number of drugs/compounds
compound_concentrations	 = [ 5 | i in 1..compounds]; 
compound_replicates	 = [ 2 | i in 1..compounds];

compound_names = ["compound\(i)" | i in 1..compounds];
compound_concentration_names = [|"1uM", "3uM", "10uM", "30uM", "100uM"
|"1uM", "3uM", "10uM", "30uM", "100uM"
|"1uM", "3uM", "10uM", "30uM", "100uM"
|"1uM", "3uM", "10uM", "30uM", "100uM"
|"1uM", "3uM", "10uM", "30uM", "100uM"
|"1uM", "3uM", "10uM", "30uM", "100uM"
|"1uM", "3uM", "10uM", "30uM", "100uM"
|"1uM", "3uM", "10uM", "30uM", "100uM"|];

compound_concentration_indicators = ["" | i in 1..5]; 


%%% Combinations %%%
combinations = 	0;
combination_names = [];
combination_concentration_names = [];
combination_concentrations = 0;


%%% Controls %%%
num_controls = 4;
control_replicates = [4,4,4,4];
control_concentrations = [1,1,1,1];
control_names = ["pos1","pos2","neg1","neg2"];
control_concentration_names =  array2d(1..num_controls, 1..1,["cont\(ceil(i/max(control_concentrations)))-conc\(((i-1) mod max(control_concentrations)) + 1)" | i in 1..num_controls*max(control_concentrations)]);

  
  
